CPXPARAM_TimeLimit                               7200
CPXPARAM_Read_DataCheck                          1
CPXPARAM_RandomSeed                              201703173
Parallel mode: deterministic, using up to 8 threads for concurrent optimization.
Tried aggregator 1 time.
LP Presolve eliminated 322 rows and 0 columns.
Reduced LP has 14828 rows, 6001 columns, and 46456 nonzeros.
Presolve time = 0.01 sec. (8.34 ticks)

Iteration log . . .
Iteration:     1   Dual objective     =           900.000000
Perturbation started.
Iteration:   379   Dual objective     =           900.000000
Iteration:   397   Dual objective     =           900.000179
Initializing dual steep norms . . .
Iteration:   398   Dual objective     =           900.000212
Iteration:   690   Dual objective     =           900.003207
Iteration:   889   Dual objective     =           900.006666
Iteration:  1055   Dual objective     =           900.009272
Markowitz threshold set to 0.1
Iteration:  1094   Dual objective     =           900.009531
Iteration:  1194   Dual objective     =           900.010774
Iteration:  1364   Dual objective     =           900.013607
Iteration:  1527   Dual objective     =           900.016374
Iteration:  1683   Dual objective     =           900.019743
Iteration:  1871   Dual objective     =           900.022065
Iteration:  2061   Dual objective     =           900.023475
Iteration:  2356   Dual objective     =           900.024284
Iteration:  2567   Dual objective     =           900.026576
Iteration:  2864   Dual objective     =           900.027754
Iteration:  3103   Dual objective     =           900.039862
Iteration:  3324   Dual objective     =           961.065272
Iteration:  3585   Dual objective     =          1000.539153
Iteration:  3894   Dual objective     =          1000.750048
Removing perturbation.

Barrier solved model.

